(set-logic HORN)


(declare-fun |<Main: void main(JayArray_java_lang_String)>_Block1_2| ( Int Int Int Int Int Int Int Int Int Int Int Int Int Int ) Bool)
(declare-fun |<Main: int addition(int,int)>_post| ( Int Int Int Int Int Int Int Int ) Bool)
(declare-fun |<Main: void main(JayArray_java_lang_String)>_Block3| ( Int Int Int Int Int Int Int Int Int Int Int Int ) Bool)
(declare-fun |<Main: void <clinit>()>_post| ( Int Int Int Int Int ) Bool)
(declare-fun |<Main: void main(JayArray_java_lang_String)>_Block4| ( Int Int Int Int Int Int Int Int Int Int Int Int ) Bool)
(declare-fun |<JayHornAssertions: void <clinit>()>_Block0| ( Int Int Int Int Int ) Bool)
(declare-fun |<Main: int addition(int,int)>_Block6| ( Int Int Int Int Int Int Int ) Bool)
(declare-fun |Assert #0: Main.java, line 23| ( ) Bool)
(declare-fun |<Main: void <clinit>()>_Block1_3| ( Int Int Int Int Int ) Bool)
(declare-fun |<Main: int addition(int,int)>_Block5_1| ( Int Int Int Int Int Int ) Bool)
(declare-fun |<Main: int addition(int,int)>_Block3_1| ( Int Int Int Int Int Int Int Int ) Bool)
(declare-fun |<Main: void main(JayArray_java_lang_String)>_Block1_1| ( Int Int Int Int Int Int Int Int Int Int Int Int Int Int Int ) Bool)
(declare-fun |<Main: int addition(int,int)>_Block0| ( Int Int Int Int Int Int Int Int ) Bool)
(declare-fun |<Main: void main(JayArray_java_lang_String)>_Block1_13| ( Int Int Int Int Int Int Int Int Int Int Int Int Int ) Bool)
(declare-fun |<Main: int addition(int,int)>_Block1_1| ( Int Int Int Int Int Int Int Int Int Int ) Bool)
(declare-fun |<Main: void <clinit>()>_pre| ( Int ) Bool)
(declare-fun |<Main: void main(JayArray_java_lang_String)>_Block1_11| ( Int Int Int Int Int Int Int Int ) Bool)
(declare-fun |<JayHornAssertions: void <clinit>()>_pre| ( Int ) Bool)
(declare-fun |<Main: int addition(int,int)>_Block6_1| ( Int Int Int Int Int Int Int Int ) Bool)
(declare-fun |<Havoc_Class: int havoc_int()>_pre| ( Int ) Bool)
(declare-fun |<Main: int addition(int,int)>_Block9_1| ( Int Int Int Int Int Int Int Int ) Bool)
(declare-fun |<Havoc_Class: int havoc_int()>_Block0_1| ( Int Int Int ) Bool)
(declare-fun |<Main: void main(JayArray_java_lang_String)>_Block1| ( Int Int Int Int Int Int Int Int Int Int Int Int Int Int Int Int Int Int Int Int Int Int Int ) Bool)
(declare-fun |<Havoc_Class: int havoc_int()>_Block0_2| ( Int Int Int Int Int Int ) Bool)
(declare-fun |<JayHornAssertions: void <clinit>()>_Block1_1| ( Int Int ) Bool)
(declare-fun |<Main: int addition(int,int)>_Block9| ( Int Int Int Int Int Int Int Int ) Bool)
(declare-fun |<Main: void main(JayArray_java_lang_String)>_Block1_6| ( Int Int Int Int Int Int Int Int Int Int ) Bool)
(declare-fun |<Main: int addition(int,int)>_Block5_2| ( Int Int Int Int Int Int ) Bool)
(declare-fun |<JayHornAssertions: void <clinit>()>_Block1| ( Int Int ) Bool)
(declare-fun |<JayHornAssertions: void <clinit>()>_Block1_2| ( Int Int Int Int Int ) Bool)
(declare-fun |<Main: void main(JayArray_java_lang_String)>_Block1_12| ( Int Int Int Int Int Int Int Int Int Int Int Int ) Bool)
(declare-fun |Assert #2: Main.java, line 25| ( ) Bool)
(declare-fun |CHC_COMP_FALSE| ( ) Bool)
(declare-fun |Assert #3: Main.java, line 29| ( ) Bool)
(declare-fun |<Main: void main(JayArray_java_lang_String)>_Block1_9| ( Int Int Int Int Int Int Int Int Int Int Int ) Bool)
(declare-fun |<Main: void <clinit>()>_Block1_2| ( Int Int Int Int Int Int Int Int ) Bool)
(declare-fun |<JayHornAssertions: void <clinit>()>_post| ( Int Int Int Int Int ) Bool)
(declare-fun |<Main: int addition(int,int)>_Block1| ( Int Int Int Int Int Int Int Int Int Int ) Bool)
(declare-fun |<Main: void <clinit>()>_Block0| ( Int Int Int Int Int ) Bool)
(declare-fun |<Main: int addition(int,int)>_Block1_2| ( Int Int Int Int Int Int Int Int Int Int Int Int Int ) Bool)
(declare-fun |<Main: int addition(int,int)>_Block4_3| ( Int Int Int Int Int Int Int Int ) Bool)
(declare-fun |<Main: void main(JayArray_java_lang_String)>_Block1_5| ( Int Int Int Int Int Int ) Bool)
(declare-fun |<Main: void main(JayArray_java_lang_String)>_Block5| ( Int Int Int Int Int Int Int Int Int Int ) Bool)
(declare-fun |<Main: void main(JayArray_java_lang_String)>_Block1_4| ( Int Int Int Int Int Int ) Bool)
(declare-fun |<Main: int addition(int,int)>_Block4_1| ( Int Int Int Int Int Int ) Bool)
(declare-fun |<Havoc_Class: int havoc_int()>_post| ( Int Int Int Int Int Int ) Bool)
(declare-fun |<Main: int addition(int,int)>_Block7_1| ( Int Int Int Int Int Int Int Int ) Bool)
(declare-fun |<Main: int addition(int,int)>_Block7| ( Int Int Int Int Int Int Int Int ) Bool)
(declare-fun |<Main: void main(JayArray_java_lang_String)>_Block1_10| ( Int Int Int Int Int Int Int Int Int ) Bool)
(declare-fun |<Main: int addition(int,int)>_pre| ( Int Int Int ) Bool)
(declare-fun |<Main: void main(JayArray_java_lang_String)>_Block1_3| ( Int Int Int Int Int Int ) Bool)
(declare-fun |<Main: int addition(int,int)>_Block4| ( Int Int Int Int Int Int Int Int Int Int Int Int ) Bool)
(declare-fun |<Main: int addition(int,int)>_Block5| ( Int Int Int Int Int Int Int Int Int Int Int Int ) Bool)
(declare-fun |<Main: void <clinit>()>_Block1| ( Int Int Int Int Int ) Bool)
(declare-fun |<Main: int addition(int,int)>_Block4_2| ( Int Int Int Int Int Int ) Bool)
(declare-fun |<Main: void main(JayArray_java_lang_String)>_Block1_14| ( Int Int Int Int Int Int Int Int Int Int Int Int ) Bool)
(declare-fun |<Main: int addition(int,int)>_Block2| ( Int Int Int Int Int Int Int Int Int Int Int Int Int Int ) Bool)
(declare-fun |<Main: void main(JayArray_java_lang_String)>_Block1_8| ( Int Int Int Int Int Int Int ) Bool)
(declare-fun |<Main: void <clinit>()>_Block1_1| ( Int Int Int Int Int ) Bool)
(declare-fun |<Main: int addition(int,int)>_Block8_1| ( Int Int Int Int Int Int Int Int ) Bool)
(declare-fun |<Main: int addition(int,int)>_Block5_3| ( Int Int Int Int Int Int Int Int ) Bool)
(declare-fun |<Havoc_Class: int havoc_int()>_Block0| ( Int Int Int ) Bool)
(declare-fun |Assert #1: Main.java, line 24| ( ) Bool)
(declare-fun |<Main: void main(JayArray_java_lang_String)>_Block1_7| ( Int Int Int Int Int Int Int Int ) Bool)
(declare-fun |<Main: void main(JayArray_java_lang_String)>_pre| ( Int Int Int Int Int ) Bool)
(declare-fun |<Main: int addition(int,int)>_Block8| ( Int Int Int Int Int Int Int ) Bool)
(declare-fun |<Main: int addition(int,int)>_Block3| ( Int Int Int Int Int Int Int Int Int ) Bool)
(declare-fun |<Main: int addition(int,int)>_Block1_3| ( Int Int Int Int Int Int Int Int Int Int Int Int Int Int ) Bool)

(assert
  (forall ( (A Int) (B Int) (C Int) (D Int) (E Int) (F Int) (G Int) (v_7 Int) (v_8 Int) (v_9 Int) ) 
    (=>
      (and
        (|<Main: int addition(int,int)>_pre| A B C)
        (and (= v_7 A) (= v_8 B) (= v_9 C))
      )
      (|<Main: int addition(int,int)>_Block1| A B C D E F G v_7 v_8 v_9)
    )
  )
)
(assert
  (forall ( (A Int) (B Int) (C Int) (D Int) (E Int) (F Int) (G Int) (v_7 Int) (v_8 Int) (v_9 Int) (v_10 Int) (v_11 Int) (v_12 Int) ) 
    (=>
      (and
        (|<Main: int addition(int,int)>_Block1| A B C D E F G v_7 v_8 v_9)
        (and (= v_7 A) (= v_8 B) (= v_9 C) (= v_10 A) (= v_11 B) (= v_12 C))
      )
      (|<Main: int addition(int,int)>_Block1_1| A B C D E F G v_10 v_11 v_12)
    )
  )
)
(assert
  (forall ( (A Int) (B Int) (C Int) (D Int) (E Int) (F Int) (G Int) (H Int) (I Int) (J Int) (K Int) (v_11 Int) (v_12 Int) (v_13 Int) (v_14 Int) ) 
    (=>
      (and
        (|<Main: int addition(int,int)>_Block1_1| A B C G H I J v_11 v_12 K)
        (and (= v_11 A) (= v_12 B) (= F 0) (= E 0) (= D 0) (= v_13 A) (= v_14 B))
      )
      (|<Main: int addition(int,int)>_Block1_2| A B C D E F G H I J v_13 v_14 K)
    )
  )
)
(assert
  (forall ( (A Int) (B Int) (C Int) (D Int) (E Int) (F Int) (G Int) (H Int) (I Int) (J Int) (K Int) (v_11 Int) (v_12 Int) (v_13 Int) (v_14 Int) (v_15 Int) ) 
    (=>
      (and
        (|<Main: int addition(int,int)>_Block1_2| A B C D E F G H I J v_11 v_12 K)
        (and (= v_11 A) (= v_12 B) (= v_13 A) (= v_14 B) (= v_15 B))
      )
      (|<Main: int addition(int,int)>_Block1_3| A B C D E F G H I J v_13 v_14 v_15 K)
    )
  )
)
(assert
  (forall ( (A Int) (B Int) (C Int) (D Int) (E Int) (F Int) (G Int) (H Int) (I Int) (J Int) (K Int) (L Int) (v_12 Int) (v_13 Int) (v_14 Int) (v_15 Int) ) 
    (=>
      (and
        (|<Main: int addition(int,int)>_Block1_3| A B C D E F G H I J v_12 v_13 K L)
        (and (= v_12 A) (= v_13 B) (not (= B 0)) (= v_14 A) (= v_15 B))
      )
      (|<Main: int addition(int,int)>_Block2| A B C D E F G H I J v_14 v_15 K L)
    )
  )
)
(assert
  (forall ( (A Int) (B Int) (C Int) (D Int) (E Int) (F Int) (G Int) (H Int) (I Int) (J Int) (K Int) (L Int) (v_12 Int) (v_13 Int) (v_14 Int) (v_15 Int) ) 
    (=>
      (and
        (|<Main: int addition(int,int)>_Block1_3| A B C D E F H I J K v_12 v_13 L G)
        (and (= v_12 A) (= v_13 B) (= B 0) (= v_14 A) (= v_15 B))
      )
      (|<Main: int addition(int,int)>_Block3| A B C D E F v_14 v_15 G)
    )
  )
)
(assert
  (forall ( (A Int) (B Int) (C Int) (D Int) (E Int) (F Int) (G Int) (H Int) (I Int) (J Int) (K Int) (L Int) (v_12 Int) (v_13 Int) (v_14 Int) (v_15 Int) ) 
    (=>
      (and
        (|<Main: int addition(int,int)>_Block2| A B C D E F G H K L v_12 v_13 I J)
        (and (= v_12 A) (= v_13 B) (<= I 0) (= v_14 A) (= v_15 B))
      )
      (|<Main: int addition(int,int)>_Block4| A B C D E F G H v_14 v_15 I J)
    )
  )
)
(assert
  (forall ( (A Int) (B Int) (C Int) (D Int) (E Int) (F Int) (G Int) (H Int) (I Int) (J Int) (K Int) (L Int) (v_12 Int) (v_13 Int) (v_14 Int) (v_15 Int) ) 
    (=>
      (and
        (|<Main: int addition(int,int)>_Block2| A B C D E F K L G H v_12 v_13 I J)
        (and (= v_12 A) (= v_13 B) (not (<= I 0)) (= v_14 A) (= v_15 B))
      )
      (|<Main: int addition(int,int)>_Block5| A B C D E F G H v_14 v_15 I J)
    )
  )
)
(assert
  (forall ( (A Int) (B Int) (C Int) (D Int) (E Int) (F Int) (G Int) (v_7 Int) (v_8 Int) (v_9 Int) ) 
    (=>
      (and
        (|<Main: int addition(int,int)>_Block3| A B C D E F v_7 v_8 G)
        (and (= v_7 A) (= v_8 B) (= v_9 A))
      )
      (|<Main: int addition(int,int)>_Block3_1| A B C D E F v_9 G)
    )
  )
)
(assert
  (forall ( (A Int) (B Int) (C Int) (D Int) (E Int) (F Int) (G Int) (H Int) ) 
    (=>
      (and
        (|<Main: int addition(int,int)>_Block3_1| A B C D E F G H)
        true
      )
      (|<Main: int addition(int,int)>_Block0| A B C D E F G H)
    )
  )
)
(assert
  (forall ( (A Int) (B Int) (C Int) (D Int) (E Int) (F Int) (G Int) (H Int) ) 
    (=>
      (and
        (|<Main: int addition(int,int)>_Block8_1| A B C D E F G H)
        true
      )
      (|<Main: int addition(int,int)>_Block0| A B C D E F G H)
    )
  )
)
(assert
  (forall ( (A Int) (B Int) (C Int) (D Int) (E Int) (F Int) (G Int) (H Int) ) 
    (=>
      (and
        (|<Main: int addition(int,int)>_Block9_1| A B C D E F G H)
        true
      )
      (|<Main: int addition(int,int)>_Block0| A B C D E F G H)
    )
  )
)
(assert
  (forall ( (A Int) (B Int) (C Int) (D Int) (E Int) (F Int) (G Int) (H Int) ) 
    (=>
      (and
        (|<Main: int addition(int,int)>_Block6_1| A B C D E F G H)
        true
      )
      (|<Main: int addition(int,int)>_Block0| A B C D E F G H)
    )
  )
)
(assert
  (forall ( (A Int) (B Int) (C Int) (D Int) (E Int) (F Int) (G Int) (H Int) ) 
    (=>
      (and
        (|<Main: int addition(int,int)>_Block7_1| A B C D E F G H)
        true
      )
      (|<Main: int addition(int,int)>_Block0| A B C D E F G H)
    )
  )
)
(assert
  (forall ( (A Int) (B Int) (C Int) (D Int) (E Int) (F Int) (G Int) (H Int) (I Int) (J Int) (K Int) (v_11 Int) (v_12 Int) (v_13 Int) ) 
    (=>
      (and
        (|<Main: int addition(int,int)>_Block4| A B C F G H I J v_11 v_12 K E)
        (and (= v_11 A) (= v_12 B) (= D (+ (- 1) A)) (= v_13 B))
      )
      (|<Main: int addition(int,int)>_Block4_1| A B C D v_13 E)
    )
  )
)
(assert
  (forall ( (A Int) (B Int) (C Int) (D Int) (E Int) (F Int) (v_6 Int) ) 
    (=>
      (and
        (|<Main: int addition(int,int)>_Block4_1| A B C E v_6 F)
        (and (= v_6 B) (= D (+ 1 B)))
      )
      (|<Main: int addition(int,int)>_Block4_2| A B C D E F)
    )
  )
)
(assert
  (forall ( (A Int) (B Int) (C Int) (D Int) (E Int) (F Int) ) 
    (=>
      (and
        (|<Main: int addition(int,int)>_Block4_2| D E F B A C)
        true
      )
      (|<Main: int addition(int,int)>_pre| A B C)
    )
  )
)
(assert
  (forall ( (A Int) (B Int) (C Int) (D Int) (E Int) (F Int) ) 
    (=>
      (and
        (|<Main: int addition(int,int)>_Block5_2| D E F B A C)
        true
      )
      (|<Main: int addition(int,int)>_pre| A B C)
    )
  )
)
(assert
  (forall ( (A Int) (B Int) (C Int) (D Int) (E Int) (F Int) (G Int) (H Int) ) 
    (=>
      (and
        (|<Main: void main(JayArray_java_lang_String)>_Block1_11| D E F G H A B C)
        true
      )
      (|<Main: int addition(int,int)>_pre| A B C)
    )
  )
)
(assert
  (forall ( (A Int) (B Int) (C Int) (D Int) (E Int) (F Int) (G Int) (H Int) (I Int) (J Int) (K Int) ) 
    (=>
      (and
        (|<Main: int addition(int,int)>_Block4_2| A B C J I K)
        (|<Main: int addition(int,int)>_post| I J K D E F G H)
        true
      )
      (|<Main: int addition(int,int)>_Block4_3| A B C D E F G H)
    )
  )
)
(assert
  (forall ( (A Int) (B Int) (C Int) (D Int) (E Int) (F Int) (G Int) (H Int) ) 
    (=>
      (and
        (|<Main: int addition(int,int)>_Block4_3| A B C D E F H G)
        (not (= D 0))
      )
      (|<Main: int addition(int,int)>_Block8| A B C D E F G)
    )
  )
)
(assert
  (forall ( (A Int) (B Int) (C Int) (D Int) (E Int) (F Int) (G Int) (H Int) ) 
    (=>
      (and
        (|<Main: int addition(int,int)>_Block4_3| A B C D E F G H)
        (= D 0)
      )
      (|<Main: int addition(int,int)>_Block9| A B C D E F G H)
    )
  )
)
(assert
  (forall ( (A Int) (B Int) (C Int) (D Int) (E Int) (F Int) (G Int) (H Int) (I Int) (J Int) (K Int) (v_11 Int) (v_12 Int) (v_13 Int) ) 
    (=>
      (and
        (|<Main: int addition(int,int)>_Block5| A B C F G H I J v_11 v_12 K E)
        (and (= v_11 A) (= v_12 B) (= D (+ 1 A)) (= v_13 B))
      )
      (|<Main: int addition(int,int)>_Block5_1| A B C D v_13 E)
    )
  )
)
(assert
  (forall ( (A Int) (B Int) (C Int) (D Int) (E Int) (F Int) (v_6 Int) ) 
    (=>
      (and
        (|<Main: int addition(int,int)>_Block5_1| A B C E v_6 F)
        (and (= v_6 B) (= D (+ (- 1) B)))
      )
      (|<Main: int addition(int,int)>_Block5_2| A B C D E F)
    )
  )
)
(assert
  (forall ( (A Int) (B Int) (C Int) (D Int) (E Int) (F Int) (G Int) (H Int) (I Int) (J Int) (K Int) ) 
    (=>
      (and
        (|<Main: int addition(int,int)>_Block5_2| A B C J I K)
        (|<Main: int addition(int,int)>_post| I J K D E F G H)
        true
      )
      (|<Main: int addition(int,int)>_Block5_3| A B C D E F G H)
    )
  )
)
(assert
  (forall ( (A Int) (B Int) (C Int) (D Int) (E Int) (F Int) (G Int) (H Int) ) 
    (=>
      (and
        (|<Main: int addition(int,int)>_Block5_3| A B C D E F H G)
        (not (= D 0))
      )
      (|<Main: int addition(int,int)>_Block6| A B C D E F G)
    )
  )
)
(assert
  (forall ( (A Int) (B Int) (C Int) (D Int) (E Int) (F Int) (G Int) (H Int) ) 
    (=>
      (and
        (|<Main: int addition(int,int)>_Block5_3| A B C D E F G H)
        (= D 0)
      )
      (|<Main: int addition(int,int)>_Block7| A B C D E F G H)
    )
  )
)
(assert
  (forall ( (A Int) (B Int) (C Int) (D Int) (E Int) (F Int) (G Int) (H Int) ) 
    (=>
      (and
        (|<Main: int addition(int,int)>_Block0| A B C D E F G H)
        true
      )
      (|<Main: int addition(int,int)>_post| A B C D E F G H)
    )
  )
)
(assert
  (forall ( (A Int) (B Int) (C Int) (D Int) (E Int) (F Int) (G Int) (H Int) ) 
    (=>
      (and
        (|<Main: int addition(int,int)>_Block8| A B C D E F H)
        (= G 0)
      )
      (|<Main: int addition(int,int)>_Block8_1| A B C D E F G H)
    )
  )
)
(assert
  (forall ( (A Int) (B Int) (C Int) (D Int) (E Int) (F Int) (G Int) (H Int) ) 
    (=>
      (and
        (|<Main: int addition(int,int)>_Block9| A B C D E F G H)
        true
      )
      (|<Main: int addition(int,int)>_Block9_1| A B C D E F G H)
    )
  )
)
(assert
  (forall ( (A Int) (B Int) (C Int) (D Int) (E Int) (F Int) (G Int) (H Int) ) 
    (=>
      (and
        (|<Main: int addition(int,int)>_Block6| A B C D E F H)
        (= G 0)
      )
      (|<Main: int addition(int,int)>_Block6_1| A B C D E F G H)
    )
  )
)
(assert
  (forall ( (A Int) (B Int) (C Int) (D Int) (E Int) (F Int) (G Int) (H Int) ) 
    (=>
      (and
        (|<Main: int addition(int,int)>_Block7| A B C D E F G H)
        true
      )
      (|<Main: int addition(int,int)>_Block7_1| A B C D E F G H)
    )
  )
)
(assert
  (forall ( (A Int) (B Int) (C Int) (D Int) (E Int) (F Int) (G Int) (H Int) (I Int) (J Int) (K Int) (L Int) (M Int) (N Int) (O Int) (P Int) (Q Int) (R Int) (S Int) (v_19 Int) (v_20 Int) (v_21 Int) (v_22 Int) ) 
    (=>
      (and
        (|<Main: void main(JayArray_java_lang_String)>_pre| A B C D E)
        (and (= v_19 A) (= v_20 B) (= v_21 C) (= v_22 D))
      )
      (|<Main: void main(JayArray_java_lang_String)>_Block1|
  A
  B
  C
  D
  E
  F
  G
  H
  I
  J
  K
  v_19
  v_20
  v_21
  v_22
  L
  M
  N
  O
  P
  Q
  R
  S)
    )
  )
)
(assert
  (forall ( (A Int) (B Int) (C Int) (D Int) (E Int) (F Int) (G Int) (H Int) (I Int) (J Int) (K Int) (L Int) (M Int) (N Int) (O Int) (P Int) (Q Int) (R Int) (S Int) (T Int) (v_20 Int) (v_21 Int) (v_22 Int) (v_23 Int) (v_24 Int) (v_25 Int) (v_26 Int) (v_27 Int) ) 
    (=>
      (and
        (|<Main: void main(JayArray_java_lang_String)>_Block1|
  A
  B
  C
  D
  E
  L
  M
  N
  O
  P
  Q
  v_20
  v_21
  v_22
  v_23
  F
  R
  S
  T
  H
  I
  J
  K)
        (and (= v_20 A)
     (= v_21 B)
     (= v_22 C)
     (= v_23 D)
     (= G 1)
     (= v_24 A)
     (= v_25 B)
     (= v_26 C)
     (= v_27 D))
      )
      (|<Main: void main(JayArray_java_lang_String)>_Block1_1|
  A
  B
  C
  D
  E
  v_24
  v_25
  v_26
  v_27
  F
  G
  H
  I
  J
  K)
    )
  )
)
(assert
  (forall ( (A Int) (B Int) (C Int) (D Int) (E Int) (F Int) (G Int) (H Int) (I Int) (J Int) (K Int) (v_11 Int) (v_12 Int) (v_13 Int) (v_14 Int) (v_15 Int) (v_16 Int) (v_17 Int) (v_18 Int) ) 
    (=>
      (and
        (|<Main: void main(JayArray_java_lang_String)>_Block1_1|
  A
  B
  C
  D
  E
  v_11
  v_12
  v_13
  v_14
  K
  F
  G
  H
  I
  J)
        (and (= v_11 A)
     (= v_12 B)
     (= v_13 C)
     (= v_14 D)
     (>= D 0)
     (= B 109)
     (= v_15 A)
     (= v_16 B)
     (= v_17 C)
     (= v_18 D))
      )
      (|<Main: void main(JayArray_java_lang_String)>_Block1_2|
  A
  B
  C
  D
  E
  v_15
  v_16
  v_17
  v_18
  F
  G
  H
  I
  J)
    )
  )
)
(assert
  (forall ( (A Int) (B Int) (C Int) (D Int) (E Int) (F Int) (G Int) (H Int) (I Int) (J Int) (v_10 Int) (v_11 Int) (v_12 Int) (v_13 Int) ) 
    (=>
      (and
        (|<Main: void main(JayArray_java_lang_String)>_Block1_2|
  A
  B
  C
  D
  E
  v_10
  v_11
  v_12
  v_13
  F
  G
  H
  I
  J)
        (and (= v_10 A) (= v_11 B) (= v_12 C) (= v_13 D))
      )
      (|<Main: void main(JayArray_java_lang_String)>_Block1_3| A B C D E F)
    )
  )
)
(assert
  (forall ( (A Int) (B Int) (C Int) (D Int) (E Int) (F Int) ) 
    (=>
      (and
        (|<Main: void main(JayArray_java_lang_String)>_Block1_3| B C D E F A)
        true
      )
      (|<Main: void <clinit>()>_pre| A)
    )
  )
)
(assert
  (forall ( (A Int) (B Int) (C Int) (D Int) (E Int) (F Int) (G Int) (H Int) (I Int) (J Int) ) 
    (=>
      (and
        (|<Main: void main(JayArray_java_lang_String)>_Block1_3| A B C D E G)
        (|<Main: void <clinit>()>_post| G H I J F)
        true
      )
      (|<Main: void main(JayArray_java_lang_String)>_Block1_4| A B C D E F)
    )
  )
)
(assert
  (forall ( (A Int) (B Int) (C Int) (D Int) (E Int) (F Int) ) 
    (=>
      (and
        (|<Main: void main(JayArray_java_lang_String)>_Block1_4| B C D E F A)
        true
      )
      (|<JayHornAssertions: void <clinit>()>_pre| A)
    )
  )
)
(assert
  (forall ( (A Int) (B Int) (C Int) (D Int) (E Int) (F Int) (G Int) (H Int) (I Int) (J Int) ) 
    (=>
      (and
        (|<Main: void main(JayArray_java_lang_String)>_Block1_4| A B C D E G)
        (|<JayHornAssertions: void <clinit>()>_post| G H I J F)
        true
      )
      (|<Main: void main(JayArray_java_lang_String)>_Block1_5| A B C D E F)
    )
  )
)
(assert
  (forall ( (A Int) (B Int) (C Int) (D Int) (E Int) (F Int) ) 
    (=>
      (and
        (|<Main: void main(JayArray_java_lang_String)>_Block1_5| B C D E F A)
        true
      )
      (|<Havoc_Class: int havoc_int()>_pre| A)
    )
  )
)
(assert
  (forall ( (A Int) (B Int) (C Int) (D Int) (E Int) (F Int) (G Int) ) 
    (=>
      (and
        (|<Main: void main(JayArray_java_lang_String)>_Block1_8| B C D E F G A)
        true
      )
      (|<Havoc_Class: int havoc_int()>_pre| A)
    )
  )
)
(assert
  (forall ( (A Int) (B Int) (C Int) (D Int) (E Int) (F Int) (G Int) (H Int) (I Int) (J Int) (K Int) ) 
    (=>
      (and
        (|<Main: void main(JayArray_java_lang_String)>_Block1_5| A B C D E K)
        (|<Havoc_Class: int havoc_int()>_post| K F G H I J)
        true
      )
      (|<Main: void main(JayArray_java_lang_String)>_Block1_6| A B C D E F G H I J)
    )
  )
)
(assert
  (forall ( (A Int) (B Int) (C Int) (D Int) (E Int) (F Int) (G Int) (H Int) (I Int) (J Int) (K Int) ) 
    (=>
      (and
        (|<Main: void main(JayArray_java_lang_String)>_Block1_6| A B C D E I J K G H)
        (and (= F 1) (not (= I 0)))
      )
      (|<Main: void main(JayArray_java_lang_String)>_Block1_7| A B C D E F G H)
    )
  )
)
(assert
  (forall ( (A Int) (B Int) (C Int) (D Int) (E Int) (F Int) (G Int) (H Int) (I Int) (J Int) (K Int) ) 
    (=>
      (and
        (|<Main: void main(JayArray_java_lang_String)>_Block1_6| A B C D E I J K G H)
        (and (= F 0) (= I 0))
      )
      (|<Main: void main(JayArray_java_lang_String)>_Block1_7| A B C D E F G H)
    )
  )
)
(assert
  (forall ( (A Int) (B Int) (C Int) (D Int) (E Int) (F Int) (G Int) (H Int) ) 
    (=>
      (and
        (|<Main: void main(JayArray_java_lang_String)>_Block1_7| A B C D E H F G)
        true
      )
      (|<Main: void main(JayArray_java_lang_String)>_Block1_8| A B C D E F G)
    )
  )
)
(assert
  (forall ( (A Int) (B Int) (C Int) (D Int) (E Int) (F Int) (G Int) (H Int) ) 
    (=>
      (and
        (|<Main: void main(JayArray_java_lang_String)>_Block1_7| A B C D E F G H)
        (not (= F 0))
      )
      |Assert #0: Main.java, line 23|
    )
  )
)
(assert
  (forall ( (A Int) (B Int) (C Int) (D Int) (E Int) (F Int) (G Int) (H Int) (I Int) (J Int) (K Int) (L Int) ) 
    (=>
      (and
        (|<Main: void main(JayArray_java_lang_String)>_Block1_8| A B C D E I L)
        (|<Havoc_Class: int havoc_int()>_post| L F G H J K)
        true
      )
      (|<Main: void main(JayArray_java_lang_String)>_Block1_9| A B C D E F G H I J K)
    )
  )
)
(assert
  (forall ( (A Int) (B Int) (C Int) (D Int) (E Int) (F Int) (G Int) (H Int) (I Int) (J Int) (K Int) (L Int) ) 
    (=>
      (and
        (|<Main: void main(JayArray_java_lang_String)>_Block1_9| A B C D E J K L G H I)
        (and (= F 1) (not (= J 0)))
      )
      (|<Main: void main(JayArray_java_lang_String)>_Block1_10| A B C D E F G H I)
    )
  )
)
(assert
  (forall ( (A Int) (B Int) (C Int) (D Int) (E Int) (F Int) (G Int) (H Int) (I Int) (J Int) (K Int) (L Int) ) 
    (=>
      (and
        (|<Main: void main(JayArray_java_lang_String)>_Block1_9| A B C D E J K L G H I)
        (and (= F 0) (= J 0))
      )
      (|<Main: void main(JayArray_java_lang_String)>_Block1_10| A B C D E F G H I)
    )
  )
)
(assert
  (forall ( (A Int) (B Int) (C Int) (D Int) (E Int) (F Int) (G Int) (H Int) (I Int) ) 
    (=>
      (and
        (|<Main: void main(JayArray_java_lang_String)>_Block1_10| A B C D E I F G H)
        true
      )
      (|<Main: void main(JayArray_java_lang_String)>_Block1_11| A B C D E F G H)
    )
  )
)
(assert
  (forall ( (A Int) (B Int) (C Int) (D Int) (E Int) (F Int) (G Int) (H Int) (I Int) ) 
    (=>
      (and
        (|<Main: void main(JayArray_java_lang_String)>_Block1_10| A B C D E F G H I)
        (not (= F 0))
      )
      |Assert #1: Main.java, line 24|
    )
  )
)
(assert
  (forall ( (A Int) (B Int) (C Int) (D Int) (E Int) (F Int) (G Int) (H Int) (I Int) (J Int) (K Int) (L Int) (M Int) ) 
    (=>
      (and
        (|<Main: void main(JayArray_java_lang_String)>_Block1_11| A B C D E I J M)
        (|<Main: int addition(int,int)>_post| I J M F G H K L)
        true
      )
      (|<Main: void main(JayArray_java_lang_String)>_Block1_12|
  A
  B
  C
  D
  E
  F
  G
  H
  I
  J
  K
  L)
    )
  )
)
(assert
  (forall ( (A Int) (B Int) (C Int) (D Int) (E Int) (F Int) (G Int) (H Int) (I Int) (J Int) (K Int) (L Int) (M Int) ) 
    (=>
      (and
        (|<Main: void main(JayArray_java_lang_String)>_Block1_12|
  A
  B
  C
  D
  E
  G
  H
  I
  J
  K
  L
  M)
        (and (not (= G 0)) (= F 1))
      )
      (|<Main: void main(JayArray_java_lang_String)>_Block1_13|
  A
  B
  C
  D
  E
  F
  G
  H
  I
  J
  K
  L
  M)
    )
  )
)
(assert
  (forall ( (A Int) (B Int) (C Int) (D Int) (E Int) (F Int) (G Int) (H Int) (I Int) (J Int) (K Int) (L Int) (M Int) ) 
    (=>
      (and
        (|<Main: void main(JayArray_java_lang_String)>_Block1_12|
  A
  B
  C
  D
  E
  G
  H
  I
  J
  K
  L
  M)
        (and (= G 0) (= F 0))
      )
      (|<Main: void main(JayArray_java_lang_String)>_Block1_13|
  A
  B
  C
  D
  E
  F
  G
  H
  I
  J
  K
  L
  M)
    )
  )
)
(assert
  (forall ( (A Int) (B Int) (C Int) (D Int) (E Int) (F Int) (G Int) (H Int) (I Int) (J Int) (K Int) (L Int) (M Int) ) 
    (=>
      (and
        (|<Main: void main(JayArray_java_lang_String)>_Block1_13|
  A
  B
  C
  D
  E
  M
  F
  G
  H
  I
  J
  K
  L)
        true
      )
      (|<Main: void main(JayArray_java_lang_String)>_Block1_14|
  A
  B
  C
  D
  E
  F
  G
  H
  I
  J
  K
  L)
    )
  )
)
(assert
  (forall ( (A Int) (B Int) (C Int) (D Int) (E Int) (F Int) (G Int) (H Int) (I Int) (J Int) (K Int) (L Int) (M Int) ) 
    (=>
      (and
        (|<Main: void main(JayArray_java_lang_String)>_Block1_13|
  A
  B
  C
  D
  E
  F
  G
  H
  I
  J
  K
  L
  M)
        (not (= F 0))
      )
      |Assert #2: Main.java, line 25|
    )
  )
)
(assert
  (forall ( (A Int) (B Int) (C Int) (D Int) (E Int) (F Int) (G Int) (H Int) (I Int) (J Int) (K Int) (L Int) ) 
    (=>
      (and
        (|<Main: void main(JayArray_java_lang_String)>_Block1_14|
  A
  B
  C
  D
  E
  F
  G
  H
  I
  J
  K
  L)
        (not (<= I 99))
      )
      (|<Main: void main(JayArray_java_lang_String)>_Block3| A B C D E F G H I J K L)
    )
  )
)
(assert
  (forall ( (A Int) (B Int) (C Int) (D Int) (E Int) (F Int) (G Int) (H Int) (I Int) (J Int) (K Int) (L Int) ) 
    (=>
      (and
        (|<Main: void main(JayArray_java_lang_String)>_Block3| A B C D E F G H I J K L)
        (not (<= J 99))
      )
      (|<Main: void main(JayArray_java_lang_String)>_Block4| A B C D E F G H I J K L)
    )
  )
)
(assert
  (forall ( (A Int) (B Int) (C Int) (D Int) (E Int) (F Int) (G Int) (H Int) (I Int) (J Int) (K Int) (L Int) ) 
    (=>
      (and
        (|<Main: void main(JayArray_java_lang_String)>_Block4| A B C D E F G H K L I J)
        (<= I 199)
      )
      (|<Main: void main(JayArray_java_lang_String)>_Block5| A B C D E F G H I J)
    )
  )
)
(assert
  (forall ( (A Int) (B Int) (C Int) (D Int) (E Int) (F Int) (G Int) (H Int) (I Int) (J Int) ) 
    (=>
      (and
        (|<Main: void main(JayArray_java_lang_String)>_Block5| A B C D E F G H I J)
        true
      )
      |Assert #3: Main.java, line 29|
    )
  )
)
(assert
  (forall ( (A Int) (B Int) (C Int) (D Int) (v_4 Int) ) 
    (=>
      (and
        (|<Main: void <clinit>()>_pre| A)
        (= v_4 A)
      )
      (|<Main: void <clinit>()>_Block1| A B C D v_4)
    )
  )
)
(assert
  (forall ( (A Int) (B Int) (C Int) (D Int) (v_4 Int) (v_5 Int) ) 
    (=>
      (and
        (|<Main: void <clinit>()>_Block1| A B C D v_4)
        (and (= v_4 A) (= v_5 A))
      )
      (|<Main: void <clinit>()>_Block1_1| A B C D v_5)
    )
  )
)
(assert
  (forall ( (A Int) (B Int) (C Int) (D Int) (E Int) (F Int) (G Int) (H Int) ) 
    (=>
      (and
        (|<Main: void <clinit>()>_Block1_1| A B C D H)
        (and (= F 0) (= E 0) (= G 0))
      )
      (|<Main: void <clinit>()>_Block1_2| A B C D E F G H)
    )
  )
)
(assert
  (forall ( (A Int) (B Int) (C Int) (D Int) (E Int) (F Int) (G Int) (H Int) ) 
    (=>
      (and
        (|<Main: void <clinit>()>_Block1_2| A F G H B C D E)
        true
      )
      (|<Main: void <clinit>()>_Block1_3| A B C D E)
    )
  )
)
(assert
  (forall ( (A Int) (B Int) (C Int) (D Int) (E Int) ) 
    (=>
      (and
        (|<Main: void <clinit>()>_Block1_3| A B C D E)
        true
      )
      (|<Main: void <clinit>()>_Block0| A B C D E)
    )
  )
)
(assert
  (forall ( (A Int) (B Int) (C Int) (D Int) (E Int) ) 
    (=>
      (and
        (|<Main: void <clinit>()>_Block0| A B C D E)
        true
      )
      (|<Main: void <clinit>()>_post| A B C D E)
    )
  )
)
(assert
  (forall ( (A Int) (v_1 Int) ) 
    (=>
      (and
        (|<JayHornAssertions: void <clinit>()>_pre| A)
        (= v_1 A)
      )
      (|<JayHornAssertions: void <clinit>()>_Block1| A v_1)
    )
  )
)
(assert
  (forall ( (A Int) (v_1 Int) (v_2 Int) ) 
    (=>
      (and
        (|<JayHornAssertions: void <clinit>()>_Block1| A v_1)
        (and (= v_1 A) (= v_2 A))
      )
      (|<JayHornAssertions: void <clinit>()>_Block1_1| A v_2)
    )
  )
)
(assert
  (forall ( (A Int) (B Int) (C Int) (D Int) (E Int) ) 
    (=>
      (and
        (|<JayHornAssertions: void <clinit>()>_Block1_1| A E)
        (and (= C 0) (= B 0) (= D 0))
      )
      (|<JayHornAssertions: void <clinit>()>_Block1_2| A B C D E)
    )
  )
)
(assert
  (forall ( (A Int) (B Int) (C Int) (D Int) (E Int) ) 
    (=>
      (and
        (|<JayHornAssertions: void <clinit>()>_Block1_2| A B C D E)
        true
      )
      (|<JayHornAssertions: void <clinit>()>_Block0| A B C D E)
    )
  )
)
(assert
  (forall ( (A Int) (B Int) (C Int) (D Int) (E Int) ) 
    (=>
      (and
        (|<JayHornAssertions: void <clinit>()>_Block0| A B C D E)
        true
      )
      (|<JayHornAssertions: void <clinit>()>_post| A B C D E)
    )
  )
)
(assert
  (forall ( (A Int) (B Int) (v_2 Int) ) 
    (=>
      (and
        (|<Havoc_Class: int havoc_int()>_pre| A)
        (= v_2 A)
      )
      (|<Havoc_Class: int havoc_int()>_Block0| A B v_2)
    )
  )
)
(assert
  (forall ( (A Int) (B Int) (v_2 Int) (v_3 Int) ) 
    (=>
      (and
        (|<Havoc_Class: int havoc_int()>_Block0| A B v_2)
        (and (= v_2 A) (= v_3 A))
      )
      (|<Havoc_Class: int havoc_int()>_Block0_1| A B v_3)
    )
  )
)
(assert
  (forall ( (A Int) (B Int) (C Int) (D Int) (E Int) (F Int) ) 
    (=>
      (and
        (|<Havoc_Class: int havoc_int()>_Block0_1| A B F)
        (and (= D 0) (= C 0) (= E 0))
      )
      (|<Havoc_Class: int havoc_int()>_Block0_2| A B C D E F)
    )
  )
)
(assert
  (forall ( (A Int) (B Int) (C Int) (D Int) (E Int) (F Int) ) 
    (=>
      (and
        (|<Havoc_Class: int havoc_int()>_Block0_2| A E B C D F)
        true
      )
      (|<Havoc_Class: int havoc_int()>_post| A B C D E F)
    )
  )
)
(assert
  (forall ( (A Int) (B Int) (C Int) (D Int) (E Int) ) 
    (=>
      (and
        true
      )
      (|<Main: void main(JayArray_java_lang_String)>_pre| A B C D E)
    )
  )
)
(assert
  (forall ( (CHC_COMP_UNUSED Bool) ) 
    (=>
      (and
        |Assert #0: Main.java, line 23|
        true
      )
      CHC_COMP_FALSE
    )
  )
)
(assert
  (forall ( (CHC_COMP_UNUSED Bool) ) 
    (=>
      (and
        |Assert #1: Main.java, line 24|
        true
      )
      CHC_COMP_FALSE
    )
  )
)
(assert
  (forall ( (CHC_COMP_UNUSED Bool) ) 
    (=>
      (and
        |Assert #2: Main.java, line 25|
        true
      )
      CHC_COMP_FALSE
    )
  )
)
(assert
  (forall ( (CHC_COMP_UNUSED Bool) ) 
    (=>
      (and
        |Assert #3: Main.java, line 29|
        true
      )
      CHC_COMP_FALSE
    )
  )
)
(assert
  (forall ( (CHC_COMP_UNUSED Bool) ) 
    (=>
      (and
        CHC_COMP_FALSE
      )
      false
    )
  )
)

(check-sat)
(exit)
